p edge 40 75 5
v 8 3 5 6 7 20 23 27 31
v 8 1 2 4 19 22 29 36 38
v 7 8 10 12 15 21 26 28
v 11 9 11 14 16 17 32 33 34 35 37 40
v 6 13 18 24 25 30 39
e 1 6
e 1 40
e 2 8
e 2 12
e 2 20
e 2 24
e 2 39
e 3 4
e 3 24
e 3 31
e 4 5
e 4 6
e 4 10
e 4 19
e 4 21
e 4 24
e 4 28
e 4 29
e 4 37
e 5 30
e 5 35
e 6 13
e 6 17
e 6 39
e 7 28
e 8 15
e 8 26
e 8 30
e 8 34
e 9 25
e 9 26
e 9 39
e 9 40
e 10 26
e 10 39
e 11 17
e 11 29
e 11 35
e 11 36
e 12 26
e 12 29
e 13 32
e 13 39
e 14 29
e 14 31
e 15 19
e 15 33
e 16 22
e 16 34
e 17 20
e 18 22
e 18 29
e 19 30
e 19 31
e 20 28
e 20 37
e 20 40
e 21 36
e 23 40
e 24 26
e 24 36
e 24 37
e 25 34
e 25 40
e 26 31
e 26 33
e 28 29
e 28 35
e 29 40
e 30 40
e 31 38
e 34 35
e 34 40
e 36 40
e 38 40
